; benchmark generated from python API
(set-info :status unknown)
(declare-fun x_epoch () Int)
(declare-fun x_shift_period_157037_epoch () Int)
(declare-fun x_year () Int)
(declare-fun x_month () Int)
(declare-fun x_day () Int)
(declare-fun x_shift_period_157037_year () Int)
(declare-fun x_shift_period_157037_month () Int)
(declare-fun x_shift_period_157037_day () Int)
(assert
 (>= x_epoch (- 36584)))
(assert
 (<= x_epoch 36829))
(assert
 (>= x_epoch 8371))
(assert
 (>= x_shift_period_157037_epoch (- 36584)))
(assert
 (<= x_shift_period_157037_epoch 36829))
(assert
 (let (($x3195 (<= x_year 2100)))
 (let (($x3177 (>= x_year 1900)))
 (let (($x2872 (= x_month 11)))
 (let (($x815 (= x_month 9)))
 (let (($x3917 (= x_month 6)))
 (let (($x376 (= x_month 4)))
 (let ((?x2278 (ite (or $x376 $x3917 $x815 $x2872) 30 31)))
 (let (($x3245 (= (mod x_year 4) 0)))
 (let (($x1838 (= (mod x_year 100) 0)))
 (let (($x1098 (= (mod x_year 400) 0)))
 (let (($x1123 (ite $x1098 true (ite $x1838 false $x3245))))
 (let (($x2885 (= x_month 2)))
 (let ((?x1225 (ite $x2885 (ite $x1123 29 28) ?x2278)))
 (let (($x4162 (>= x_day 1)))
 (let (($x4286 (<= x_month 12)))
 (let (($x948 (>= x_month 1)))
 (and $x948 $x4286 $x4162 (<= x_day ?x1225) $x3177 $x3195))))))))))))))))))
(assert
 (let (($x29 (or (and (= (mod 2000 4) 0) (and (distinct (mod 2000 100) 0) true)) (= (mod 2000 400) 0))))
 (let ((?x36 (ite (= 3 2) (ite $x29 31 31) (ite (= 3 1) (ite $x29 0 0) 0))))
 (let ((?x40 (ite $x29 60 59)))
 (let ((?x41 (ite (= 3 3) ?x40 ?x36)))
 (let ((?x46 (ite (= 3 4) (ite $x29 91 90) ?x41)))
 (let ((?x52 (ite (= 3 5) (ite $x29 121 120) ?x46)))
 (let ((?x58 (ite (= 3 6) (ite $x29 152 151) ?x52)))
 (let ((?x64 (ite (= 3 7) (ite $x29 182 181) ?x58)))
 (let ((?x70 (ite (= 3 8) (ite $x29 213 212) ?x64)))
 (let ((?x76 (ite (= 3 9) (ite $x29 244 243) ?x70)))
 (let ((?x82 (ite (= 3 10) (ite $x29 274 273) ?x76)))
 (let ((?x88 (ite (= 3 11) (ite $x29 305 304) ?x82)))
 (let ((?x16 (- (+ (* 365 (- 2000 1)) (div (- 2000 1) 4)) (div (- 2000 1) 100))))
 (let ((?x95 (+ (+ ?x16 (div (- 2000 1) 400)) (ite (= 3 12) (ite $x29 335 334) ?x88))))
 (let ((?x97 (+ ?x95 (- 1 1))))
 (let (($x3245 (= (mod x_year 4) 0)))
 (let (($x1838 (= (mod x_year 100) 0)))
 (let (($x1098 (= (mod x_year 400) 0)))
 (let (($x1123 (ite $x1098 true (ite $x1838 false $x3245))))
 (let (($x508 (= 2 x_month)))
 (let ((?x293 (ite $x508 (ite $x1123 31 31) (ite (= 1 x_month) (ite $x1123 0 0) 0))))
 (let (($x467 (= 3 x_month)))
 (let (($x906 (= 4 x_month)))
 (let ((?x2351 (ite $x906 (ite $x1123 91 90) (ite $x467 (ite $x1123 60 59) ?x293))))
 (let (($x3816 (= 5 x_month)))
 (let (($x3012 (= 6 x_month)))
 (let ((?x897 (ite $x3012 (ite $x1123 152 151) (ite $x3816 (ite $x1123 121 120) ?x2351))))
 (let (($x1091 (= 7 x_month)))
 (let (($x1249 (= 8 x_month)))
 (let ((?x2575 (ite $x1249 (ite $x1123 213 212) (ite $x1091 (ite $x1123 182 181) ?x897))))
 (let (($x702 (= 9 x_month)))
 (let (($x3233 (= 10 x_month)))
 (let ((?x2065 (ite $x3233 (ite $x1123 274 273) (ite $x702 (ite $x1123 244 243) ?x2575))))
 (let (($x4166 (= 11 x_month)))
 (let (($x556 (= 12 x_month)))
 (let ((?x2109 (ite $x556 (ite $x1123 335 334) (ite $x4166 (ite $x1123 305 304) ?x2065))))
 (let ((?x545 (- (+ (* 365 (- x_year 1)) (div (- x_year 1) 4)) (div (- x_year 1) 100))))
 (let ((?x1789 (+ (+ (+ ?x545 (div (- x_year 1) 400)) ?x2109) (- x_day 1))))
 (= x_epoch (- ?x1789 ?x97)))))))))))))))))))))))))))))))))))))))))
(assert
 (let (($x3985 (<= x_shift_period_157037_year 2100)))
 (let (($x4013 (>= x_shift_period_157037_year 1900)))
 (let (($x3595 (= x_shift_period_157037_month 11)))
 (let (($x3787 (= x_shift_period_157037_month 9)))
 (let (($x3437 (= x_shift_period_157037_month 6)))
 (let (($x5430 (= x_shift_period_157037_month 4)))
 (let ((?x4668 (ite (or $x5430 $x3437 $x3787 $x3595) 30 31)))
 (let (($x2143 (= (mod x_shift_period_157037_year 4) 0)))
 (let (($x3289 (= (mod x_shift_period_157037_year 100) 0)))
 (let (($x2322 (= (mod x_shift_period_157037_year 400) 0)))
 (let (($x4890 (ite $x2322 true (ite $x3289 false $x2143))))
 (let (($x3092 (= x_shift_period_157037_month 2)))
 (let (($x3375 (>= x_shift_period_157037_day 1)))
 (let (($x2430 (<= x_shift_period_157037_month 12)))
 (let (($x2359 (>= x_shift_period_157037_month 1)))
 (and $x2359 $x2430 $x3375 (<= x_shift_period_157037_day (ite $x3092 (ite $x4890 29 28) ?x4668)) $x4013 $x3985)))))))))))))))))
(assert
 (let (($x29 (or (and (= (mod 2000 4) 0) (and (distinct (mod 2000 100) 0) true)) (= (mod 2000 400) 0))))
 (let ((?x36 (ite (= 3 2) (ite $x29 31 31) (ite (= 3 1) (ite $x29 0 0) 0))))
 (let ((?x40 (ite $x29 60 59)))
 (let ((?x41 (ite (= 3 3) ?x40 ?x36)))
 (let ((?x46 (ite (= 3 4) (ite $x29 91 90) ?x41)))
 (let ((?x52 (ite (= 3 5) (ite $x29 121 120) ?x46)))
 (let ((?x58 (ite (= 3 6) (ite $x29 152 151) ?x52)))
 (let ((?x64 (ite (= 3 7) (ite $x29 182 181) ?x58)))
 (let ((?x70 (ite (= 3 8) (ite $x29 213 212) ?x64)))
 (let ((?x76 (ite (= 3 9) (ite $x29 244 243) ?x70)))
 (let ((?x82 (ite (= 3 10) (ite $x29 274 273) ?x76)))
 (let ((?x88 (ite (= 3 11) (ite $x29 305 304) ?x82)))
 (let ((?x16 (- (+ (* 365 (- 2000 1)) (div (- 2000 1) 4)) (div (- 2000 1) 100))))
 (let ((?x95 (+ (+ ?x16 (div (- 2000 1) 400)) (ite (= 3 12) (ite $x29 335 334) ?x88))))
 (let ((?x97 (+ ?x95 (- 1 1))))
 (let (($x2143 (= (mod x_shift_period_157037_year 4) 0)))
 (let (($x3289 (= (mod x_shift_period_157037_year 100) 0)))
 (let (($x2322 (= (mod x_shift_period_157037_year 400) 0)))
 (let (($x4890 (ite $x2322 true (ite $x3289 false $x2143))))
 (let ((?x3424 (ite (= 1 x_shift_period_157037_month) (ite $x4890 0 0) 0)))
 (let ((?x1265 (ite (= 3 x_shift_period_157037_month) (ite $x4890 60 59) (ite (= 2 x_shift_period_157037_month) (ite $x4890 31 31) ?x3424))))
 (let ((?x797 (ite (= 5 x_shift_period_157037_month) (ite $x4890 121 120) (ite (= 4 x_shift_period_157037_month) (ite $x4890 91 90) ?x1265))))
 (let ((?x3122 (ite (= 7 x_shift_period_157037_month) (ite $x4890 182 181) (ite (= 6 x_shift_period_157037_month) (ite $x4890 152 151) ?x797))))
 (let ((?x2199 (ite (= 9 x_shift_period_157037_month) (ite $x4890 244 243) (ite (= 8 x_shift_period_157037_month) (ite $x4890 213 212) ?x3122))))
 (let ((?x5153 (ite (= 11 x_shift_period_157037_month) (ite $x4890 305 304) (ite (= 10 x_shift_period_157037_month) (ite $x4890 274 273) ?x2199))))
 (let ((?x5472 (+ (* 365 (- x_shift_period_157037_year 1)) (div (- x_shift_period_157037_year 1) 4))))
 (let ((?x3928 (+ (- ?x5472 (div (- x_shift_period_157037_year 1) 100)) (div (- x_shift_period_157037_year 1) 400))))
 (let ((?x3299 (+ ?x3928 (ite (= 12 x_shift_period_157037_month) (ite $x4890 335 334) ?x5153))))
 (= x_shift_period_157037_epoch (- (+ ?x3299 (- x_shift_period_157037_day 1)) ?x97)))))))))))))))))))))))))))))))
(assert
 (let ((?x2644 (* 12 x_year)))
 (let ((?x5020 (+ ?x2644 (- x_month 1))))
 (let ((?x5138 (+ ?x5020 1)))
 (let ((?x494 (div ?x5138 12)))
 (= x_shift_period_157037_year ?x494))))))
(assert
 (let ((?x1844 (+ (mod (+ (+ (* 12 x_year) (- x_month 1)) 1) 12) 1)))
 (= x_shift_period_157037_month ?x1844)))
(assert
 (let ((?x1844 (+ (mod (+ (+ (* 12 x_year) (- x_month 1)) 1) 12) 1)))
 (let ((?x3503 (ite (or (= ?x1844 4) (= ?x1844 6) (= ?x1844 9) (= ?x1844 11)) 30 31)))
 (let ((?x2644 (* 12 x_year)))
 (let ((?x5020 (+ ?x2644 (- x_month 1))))
 (let ((?x5138 (+ ?x5020 1)))
 (let ((?x494 (div ?x5138 12)))
 (let (($x5032 (ite (= (mod ?x494 400) 0) true (ite (= (mod ?x494 100) 0) false (= (mod ?x494 4) 0)))))
 (let ((?x3000 (ite (= ?x1844 2) (ite $x5032 29 28) ?x3503)))
 (let ((?x4907 (ite (<= x_day ?x3000) x_day ?x3000)))
 (let (($x2872 (= x_month 11)))
 (let (($x815 (= x_month 9)))
 (let (($x3917 (= x_month 6)))
 (let (($x376 (= x_month 4)))
 (let ((?x2278 (ite (or $x376 $x3917 $x815 $x2872) 30 31)))
 (let (($x3245 (= (mod x_year 4) 0)))
 (let (($x1838 (= (mod x_year 100) 0)))
 (let (($x1098 (= (mod x_year 400) 0)))
 (let (($x1123 (ite $x1098 true (ite $x1838 false $x3245))))
 (let (($x2885 (= x_month 2)))
 (let ((?x1225 (ite $x2885 (ite $x1123 29 28) ?x2278)))
 (let (($x1856 (= x_day ?x1225)))
 (let ((?x5129 (ite false (ite $x1856 ?x3000 ?x4907) ?x4907)))
 (= x_shift_period_157037_day ?x5129))))))))))))))))))))))))
(assert
 (<= x_shift_period_157037_epoch 8400))
(check-sat)
